; benchmark generated from python API
(set-info :status unknown)
(declare-fun S_0 () Real)
(declare-fun S_2 () Real)
(declare-fun C () Real)
(declare-fun A_0 () Real)
(declare-fun L_0 () Real)
(declare-fun L0 () Real)
(declare-fun B () Real)
(declare-fun A_3 () Real)
(declare-fun L_2 () Real)
(declare-fun A_1 () Real)
(declare-fun S_1 () Real)
(declare-fun L_1 () Real)
(declare-fun A_2 () Real)
(declare-fun A_4 () Real)
(declare-fun S_4 () Real)
(declare-fun S_3 () Real)
(assert
 (let (($x37 (>= L0 0.0)))
 (let (($x719 (>= C 5.0)))
 (let (($x327 (>= B 5.0)))
 (let (($x1177 (not (<= L_2 L_0))))
 (let (($x4166 (<= (+ (* (- 4.0) C) (* (- 1.0) L_0) A_3 (* (- 1.0) S_0)) 0.0)))
 (let (($x4171 (<= (+ (* (- 3.0) C) (* (- 1.0) L_0) A_3 (* (- 1.0) S_1)) 0.0)))
 (let (($x4316 (or (<= (+ A_1 (* (- 1.0) L_0) (* (- 1.0) S_2)) 0.0) (<= (+ C (* (- 1.0) S_2) S_0) 0.0))))
 (let (($x4176 (<= (+ (* (- 2.0) C) (* (- 1.0) L_0) (* (- 1.0) S_2) A_3) 0.0)))
 (let ((?x260 (* (- 1.0) C)))
 (let ((?x279 (* (- 1.0) L_2)))
 (let ((?x517 (* (- 1.0) B)))
 (let ((?x4078 (+ ?x517 ?x279 A_2 ?x260)))
 (let (($x4123 (<= (+ A_1 (* (- 1.0) L_0)) ?x4078)))
 (let (($x64 (= L_2 L_1)))
 (let (($x5637 (or (not $x4123) (= (+ ?x260 A_2 ?x279 ?x517 (* (- 1.0) A_1) L_0) 0.0))))
 (let (($x1433 (= L_2 L_0)))
 (let (($x1103 (not (= L_0 L_1))))
 (let (($x4093 (or (<= (+ A_1 (* (- 1.0) L_0) L_2 (* (- 1.0) A_2) C) 0.0) $x1103 $x1433)))
 (let (($x54 (= L_1 L_0)))
 (let (($x4169 (or $x54 (<= (+ A_3 ?x279) (+ A_1 (* (- 1.0) L_1) ?x517 (* 2.0 C))))))
 (let ((?x561 (* (- 1.0) L_0)))
 (let ((?x876 (+ A_0 ?x561)))
 (let ((?x236 (* (- 1.0) L_1)))
 (let ((?x220 (+ ?x517 ?x236 A_1 ?x260)))
 (let (($x4023 (<= (+ A_2 (* (- 1.0) A_1) ?x260) 0.0)))
 (let (($x1425 (not (= L_1 L_2))))
 (let (($x36 (>= L_0 L0)))
 (let (($x111 (>= S_1 S_0)))
 (let (($x114 (>= S_2 S_1)))
 (let (($x120 (>= S_4 S_3)))
 (let (($x122 (>= A_1 A_0)))
 (let (($x123 (>= A_2 A_1)))
 (let (($x124 (>= A_3 A_2)))
 (and (<= (+ A_3 ?x279) S_3) $x124 $x123 $x122 $x120 $x114 $x111 $x36 (>= S_2 (+ A_1 ?x236 ?x517)) (or $x54 (not (<= L_1 L_0))) (or $x54 (<= S_1 (+ A_1 ?x236 ?x517))) (<= S_3 (+ A_3 ?x279)) (<= S_4 (+ A_3 ?x279 C)) (or $x64 (<= A_3 (+ A_2 ?x517 C))) (>= S_1 ?x220) (or $x54 (<= S_0 ?x220)) (or $x64 (<= S_2 (+ A_2 ?x279 ?x517))) (or $x54 $x64 (= L_2 (+ A_2 (* (- 1.0) A_1) L_1 ?x260))) (or (not $x4023) $x64) (or $x54 $x1425 $x4023) (or $x54 (<= S_2 (+ A_1 ?x236 ?x517 C))) (<= ?x220 ?x876) (or $x1177 $x1433) (<= S_4 (+ A_4 ?x279)) (>= S_0 (+ ?x517 ?x236 A_1 (* (- 2.0) C))) $x4169 $x4093 (or $x64 (<= S_1 ?x4078)) (>= S_2 ?x4078) (<= A_3 (+ A_2 C)) (<= (+ (* (- 1.0) A_1) L_0 S_1) 0.0) $x5637 (<= (+ ?x517 ?x279 A_2 (* (- 2.0) C)) ?x876) (or $x64 (<= S_0 (+ ?x517 ?x279 A_2 (* (- 2.0) C))) $x4123) (>= S_1 (+ ?x517 ?x279 A_2 (* (- 2.0) C))) (>= S_0 (+ ?x517 ?x279 A_2 (* (- 3.0) C))) (<= S_2 (+ A_2 ?x236)) (<= (+ ?x260 L_0 S_1 (* (- 1.0) A_0)) 0.0) (<= (+ (* (- 2.0) C) L_0 S_2 (* (- 1.0) A_0)) 0.0) (<= (+ (* (- 2.0) C) S_1 (* (- 1.0) S_0)) 0.0) (or $x1177 $x4176) (<= (+ (* (- 2.0) C) S_2 (* (- 1.0) S_1)) 0.0) $x4316 (<= (+ (* (- 1.0) A_1) S_2 L_0 ?x260) 0.0) (or $x1177 $x4171) (or $x1177 (<= (+ (* (- 1.0) A_1) (* (- 2.0) C) A_3) 0.0)) (or $x1177 $x4166) (or $x1177 (<= (+ (* (- 3.0) C) A_3 (* (- 1.0) A_0)) 0.0)) $x327 $x719 $x37 (<= (+ L_0 (* (- 1.0) A_0) S_0) 0.0) (<= (+ (* (- 3.0) C) S_2 (* (- 1.0) S_0)) 0.0))))))))))))))))))))))))))))))))))))
(check-sat)
